p edge 50 323 15
v 4 5 17 33 44
v 1 29
v 3 4 12 14
v 2 11 16
v 3 22 25 39
v 3 21 24 36
v 2 18 50
v 4 8 23 37 42
v 6 2 7 10 27 31 41
v 3 13 43 49
v 3 34 38 46
v 2 40 45
v 5 1 20 26 28 35
v 4 3 6 9 30
v 5 15 19 32 47 48
e 1 9
e 1 18
e 1 19
e 1 20
e 1 22
e 1 23
e 1 29
e 1 30
e 1 37
e 1 40
e 1 42
e 2 13
e 2 14
e 2 15
e 2 26
e 2 29
e 2 30
e 2 31
e 2 32
e 2 33
e 2 38
e 2 48
e 2 49
e 2 50
e 3 4
e 3 10
e 3 13
e 3 17
e 3 18
e 3 28
e 3 30
e 3 32
e 3 35
e 3 37
e 3 40
e 3 48
e 4 5
e 4 8
e 4 12
e 4 24
e 4 26
e 4 28
e 4 29
e 4 33
e 4 34
e 4 37
e 4 45
e 4 46
e 5 6
e 5 14
e 5 20
e 5 21
e 5 23
e 5 24
e 5 26
e 5 27
e 5 30
e 5 32
e 5 34
e 5 35
e 5 41
e 5 48
e 6 11
e 6 15
e 6 17
e 6 18
e 6 23
e 6 25
e 6 26
e 6 44
e 7 8
e 7 23
e 7 24
e 7 25
e 7 32
e 7 38
e 7 46
e 7 47
e 8 10
e 8 11
e 8 12
e 8 22
e 8 29
e 8 33
e 8 40
e 8 42
e 8 47
e 9 13
e 9 15
e 9 16
e 9 19
e 9 23
e 9 25
e 9 29
e 9 33
e 9 37
e 9 40
e 9 42
e 9 43
e 9 48
e 10 11
e 10 13
e 10 16
e 10 17
e 10 24
e 10 28
e 10 29
e 10 38
e 10 39
e 10 50
e 11 15
e 11 16
e 11 23
e 11 25
e 11 27
e 11 32
e 11 38
e 11 40
e 11 42
e 11 46
e 12 15
e 12 16
e 12 24
e 12 26
e 12 29
e 12 34
e 12 42
e 12 47
e 13 21
e 13 22
e 13 24
e 13 28
e 13 31
e 13 37
e 13 38
e 13 40
e 13 43
e 13 47
e 14 19
e 14 26
e 14 27
e 14 33
e 14 36
e 14 37
e 14 41
e 14 42
e 14 44
e 14 46
e 15 20
e 15 26
e 15 27
e 15 29
e 15 30
e 15 31
e 15 32
e 15 35
e 15 36
e 15 38
e 15 50
e 16 18
e 16 19
e 16 22
e 16 28
e 16 34
e 16 43
e 16 44
e 16 45
e 17 25
e 17 31
e 17 34
e 17 38
e 18 27
e 18 30
e 18 33
e 18 35
e 18 38
e 18 46
e 18 47
e 18 48
e 18 49
e 19 22
e 19 25
e 19 26
e 19 30
e 19 35
e 19 38
e 19 40
e 19 41
e 19 42
e 20 21
e 20 22
e 20 31
e 20 33
e 20 39
e 20 40
e 20 41
e 20 44
e 20 48
e 20 50
e 21 27
e 21 28
e 21 29
e 21 30
e 21 33
e 21 34
e 21 38
e 21 43
e 21 45
e 21 46
e 21 48
e 21 50
e 22 28
e 22 32
e 22 34
e 22 35
e 22 41
e 22 47
e 23 31
e 23 37
e 23 41
e 24 25
e 24 29
e 24 30
e 24 34
e 24 35
e 24 39
e 24 43
e 24 45
e 25 26
e 25 33
e 25 41
e 25 42
e 25 49
e 26 28
e 26 29
e 26 31
e 26 35
e 26 46
e 26 49
e 27 31
e 27 38
e 27 44
e 27 46
e 27 48
e 28 29
e 28 30
e 28 31
e 28 32
e 28 33
e 28 35
e 28 37
e 28 38
e 28 43
e 28 45
e 28 46
e 28 50
e 29 30
e 29 37
e 29 48
e 30 32
e 30 42
e 31 34
e 31 36
e 31 37
e 31 39
e 31 41
e 31 42
e 32 33
e 32 39
e 32 41
e 32 44
e 32 46
e 33 34
e 33 35
e 33 39
e 33 44
e 33 45
e 34 36
e 34 42
e 34 44
e 34 45
e 34 47
e 34 48
e 34 50
e 35 47
e 35 48
e 35 49
e 36 38
e 36 44
e 36 45
e 36 47
e 36 48
e 36 50
e 37 39
e 37 44
e 37 45
e 38 41
e 38 44
e 38 45
e 38 46
e 38 49
e 39 41
e 39 42
e 39 49
e 40 41
e 40 42
e 41 45
e 41 46
e 41 48
e 41 49
e 42 47
e 43 45
e 43 48
e 44 45
e 44 46
e 44 47
e 44 50
e 45 47
e 45 50
e 46 48
e 46 50
e 47 48
e 47 50
